(set-logic LIA)
(synth-fun inv ((speed Int) (throttle Int) ) Bool)

(declare-var speed Int)
(declare-var throttle Int)


(constraint (= (inv speed throttle) (and (not (= speed throttle)) (>= throttle speed))))

(check-synth)